11
0 3 2 5 2 5 2 4 5 4 2
2 0 3 2 5 6 3 5 7 4 3
3 5 0 3 5 3 3 4 5 6 4
4 3 6 0 4 9 2 4 6 3 6
9 4 4 2 0 9 3 8 3 2 5
9 3 4 2 5 0 3 5 2 6 3
2 5 6 3 6 3 0 7 5 3 5
2 4 5 2 5 3 5 0 2 4 5
2 5 6 3 5 5 3 3 0 4 2
2 5 2 4 5 2 4 5 2 0 2
2 4 4 2 2 4 4 2 4 4 0
